#p hf/3-21g output=(baf)  noraff  test int=acc2e=14 nosymm scf=conventional 

H2 chains, 37 units, 3.0 Ang Tv
 
0 1
H   -0.37   0.00   0.00
H   0.37   0.00   0.00
H   2.63   0.00   0.00
H   3.37   0.00   0.00
H   -3.37   0.00   0.00
H   -2.63   0.00   0.00
H   5.63   0.00   0.00
H   6.37   0.00   0.00
H   -6.37   0.00   0.00
H   -5.63   0.00   0.00
H   8.63   0.00   0.00
H   9.37   0.00   0.00
H   -9.37   0.00   0.00
H   -8.63   0.00   0.00
H   11.63   0.00   0.00
H   12.37   0.00   0.00
H   -12.37   0.00   0.00
H   -11.63   0.00   0.00
H   14.63   0.00   0.00
H   15.37   0.00   0.00
H   -15.37   0.00   0.00
H   -14.63   0.00   0.00
H   17.63   0.00   0.00
H   18.37   0.00   0.00
H   -18.37   0.00   0.00
H   -17.63   0.00   0.00
H   20.63   0.00   0.00
H   21.37   0.00   0.00
H   -21.37   0.00   0.00
H   -20.63   0.00   0.00
H   23.63   0.00   0.00
H   24.37   0.00   0.00
H   -24.37   0.00   0.00
H   -23.63   0.00   0.00
H   26.63   0.00   0.00
H   27.37   0.00   0.00
H   -27.37   0.00   0.00
H   -26.63   0.00   0.00
H   29.63   0.00   0.00
H   30.37   0.00   0.00
H   -30.37   0.00   0.00
H   -29.63   0.00   0.00
H   32.63   0.00   0.00
H   33.37   0.00   0.00
H   -33.37   0.00   0.00
H   -32.63   0.00   0.00
H   35.63   0.00   0.00
H   36.37   0.00   0.00
H   -36.37   0.00   0.00
H   -35.63   0.00   0.00
H   38.63   0.00   0.00
H   39.37   0.00   0.00
H   -39.37   0.00   0.00
H   -38.63   0.00   0.00
H   41.63   0.00   0.00
H   42.37   0.00   0.00
H   -42.37   0.00   0.00
H   -41.63   0.00   0.00
H   44.63   0.00   0.00
H   45.37   0.00   0.00
H   -45.37   0.00   0.00
H   -44.63   0.00   0.00
H   47.63   0.00   0.00
H   48.37   0.00   0.00
H   -48.37   0.00   0.00
H   -47.63   0.00   0.00
H   50.63   0.00   0.00
H   51.37   0.00   0.00
H   -51.37   0.00   0.00
H   -50.63   0.00   0.00
H   53.63   0.00   0.00
H   54.37   0.00   0.00
H   -54.37   0.00   0.00
H   -53.63   0.00   0.00

h2_2eri.baf

