#p hf/3-21g output=(baf)  noraff  test int=acc2e=14 nosymm scf=conventional extralink=l308

H2 molecule
 
0 1
H   -0.37   0.00   0.00
H   0.37   0.00   0.00

h2_example_mol.baf


